objective value:                   0.0002884026080005
x_1_2                                               1 	(obj:0)
x_2_3                                               1 	(obj:0)
x_3_1                                               1 	(obj:0)
x_4_3                                               1 	(obj:0)
x_5_1                                               1 	(obj:0)
x_6_2                                               1 	(obj:0)
x_7_3                                               1 	(obj:0)
x_8_1                                               1 	(obj:0)
x_9_2                                               1 	(obj:0)
x_10_3                                              1 	(obj:0)
x_11_2                                              1 	(obj:0)
x_12_1                                              1 	(obj:0)
x_13_1                                              1 	(obj:0)
x_14_1                                              1 	(obj:0)
x_15_3                                              1 	(obj:0)
x_16_2                                              1 	(obj:0)
x_17_3                                              1 	(obj:0)
x_18_1                                              1 	(obj:0)
x_19_2                                              1 	(obj:0)
x_20_3                                              1 	(obj:0)
ind_1                                               1 	(obj:0)
abs_1_2                                             1 	(obj:0)
ind_2                                               1 	(obj:0)
abs_2_3                                             1 	(obj:0)
ind_3                                               1 	(obj:0)
abs_3_1                                             1 	(obj:0)
epsI                               0.0002884026080005 	(obj:1)
prodt_x_19_2_t_x_20_3_irrev2_3_2                    1 	(obj:0)
prodt_x_19_2_t_x_20_3_irrev1_3_2                    1 	(obj:0)
prodt_x_1_2_t_x_2_1_more_coh_1      0.691842698000001 	(obj:0)
prodt_x_3_1_t_x_4_1_more_coh_1           4.3020403693 	(obj:0)
prodt_x_5_1_t_x_6_1_more_coh_1           4.5952432605 	(obj:0)
prodt_x_8_1_t_x_11_1_more_coh_1           5.749671598 	(obj:0)
prodt_x_12_1_t_x_13_1_more_coh_1         3.4389618447 	(obj:0)
prodt_x_13_1_t_x_15_1_more_coh_1          1.531013924 	(obj:0)
prodt_x_14_1_t_x_15_1_more_coh_1     1.02672463233333 	(obj:0)
prodt_x_1_2_t_x_2_2_more_coh_2           3.6793532028 	(obj:0)
prodt_x_6_2_t_x_7_2_more_coh_2            3.076752566 	(obj:0)
prodt_x_9_2_t_x_14_2_more_coh_2          2.9752790312 	(obj:0)
prodt_x_11_2_t_x_12_2_more_coh_2         1.5467415098 	(obj:0)
prodt_x_16_2_t_x_17_2_more_coh_2         0.7115554655 	(obj:0)
prodt_x_2_3_t_x_3_3_more_coh_3           2.7914232412 	(obj:0)
prodt_x_4_3_t_x_5_3_more_coh_3       3.99795348933333 	(obj:0)
prodt_x_7_3_t_x_9_3_more_coh_3           2.4423500153 	(obj:0)
prodt_x_10_3_t_x_11_3_more_coh_3         1.5648338143 	(obj:0)
prodt_x_15_3_t_x_16_3_more_coh_3         0.5057541497 	(obj:0)
prodt_x_17_3_t_x_18_3_more_coh_3         0.7704351927 	(obj:0)
prodt_x_1_2_t_x_2_2_more_irrev1_2_1     2.89519011422331 	(obj:0)
prodt_x_3_1_t_x_4_2_more_irrev1_2_1     1.72847496186303 	(obj:0)
prodt_x_5_1_t_x_10_2_more_irrev1_2_1     2.95258107226414 	(obj:0)
prodt_x_6_2_t_x_7_1_more_irrev1_2_1     3.12319029182459 	(obj:0)
prodt_x_8_1_t_x_9_2_more_irrev1_2_1     1.85161019120099 	(obj:0)
prodt_x_9_2_t_x_11_1_more_irrev1_2_1    0.847634712526201 	(obj:0)
prodt_x_11_2_t_x_13_1_more_irrev1_2_1     2.09338972250354 	(obj:0)
prodt_x_12_1_t_x_14_2_more_irrev1_2_1   0.0412285090540963 	(obj:0)
prodt_x_13_1_t_x_14_2_more_irrev1_2_1      1.4623889289805 	(obj:0)
prodt_x_14_1_t_x_16_2_more_irrev1_2_1    0.795430178849517 	(obj:0)
prodt_x_16_2_t_x_19_1_more_irrev1_2_1    0.240328811189446 	(obj:0)
prodt_x_18_1_t_x_19_2_more_irrev1_2_1    0.666601169212479 	(obj:0)
prodt_x_1_2_t_x_2_2_more_irrev2_2_1    -2.89519011422331 	(obj:0)
prodt_x_3_1_t_x_4_2_more_irrev2_2_1    -1.72847496186303 	(obj:0)
prodt_x_5_1_t_x_10_2_more_irrev2_2_1    -2.95258107226412 	(obj:0)
prodt_x_6_2_t_x_7_1_more_irrev2_2_1    -3.12319029182459 	(obj:0)
prodt_x_8_1_t_x_9_2_more_irrev2_2_1    -1.85161019120099 	(obj:0)
prodt_x_9_2_t_x_11_1_more_irrev2_2_1   -0.847634712526201 	(obj:0)
prodt_x_11_2_t_x_13_1_more_irrev2_2_1    -2.09338972250354 	(obj:0)
prodt_x_12_1_t_x_14_2_more_irrev2_2_1  -0.0412285090540961 	(obj:0)
prodt_x_13_1_t_x_14_2_more_irrev2_2_1     -1.4623889289805 	(obj:0)
prodt_x_14_1_t_x_16_2_more_irrev2_2_1   -0.795430178849517 	(obj:0)
prodt_x_16_2_t_x_19_1_more_irrev2_2_1   -0.240328811189446 	(obj:0)
prodt_x_18_1_t_x_19_2_more_irrev2_2_1   -0.666601169212479 	(obj:0)
prodt_x_1_2_t_x_2_3_more_irrev1_3_1    -2.92150454443217 	(obj:0)
prodt_x_2_3_t_x_3_1_more_irrev1_3_1    -5.34510714902003 	(obj:0)
prodt_x_3_1_t_x_4_3_more_irrev1_3_1    -3.37062661988029 	(obj:0)
prodt_x_4_3_t_x_7_1_more_irrev1_3_1    -2.77886855853796 	(obj:0)
prodt_x_5_1_t_x_10_3_more_irrev1_3_1     -1.8936780440532 	(obj:0)
prodt_x_7_3_t_x_10_1_more_irrev1_3_1    -3.30971111187431 	(obj:0)
prodt_x_8_1_t_x_9_3_more_irrev1_3_1    -1.61312894625053 	(obj:0)
prodt_x_10_3_t_x_12_1_more_irrev1_3_1    -2.63537399943842 	(obj:0)
prodt_x_12_1_t_x_14_3_more_irrev1_3_1    -2.20779085124406 	(obj:0)
prodt_x_13_1_t_x_14_3_more_irrev1_3_1     -1.2451397684259 	(obj:0)
prodt_x_14_1_t_x_16_3_more_irrev1_3_1    -2.22609758591437 	(obj:0)
prodt_x_15_3_t_x_16_1_more_irrev1_3_1   -0.219345817017218 	(obj:0)
prodt_x_17_3_t_x_18_1_more_irrev1_3_1                   -1 	(obj:0)
prodt_x_18_1_t_x_19_3_more_irrev1_3_1                   -1 	(obj:0)
prodt_x_1_2_t_x_2_3_more_irrev2_3_1     2.92150454443217 	(obj:0)
prodt_x_2_3_t_x_3_1_more_irrev2_3_1     5.34510714902003 	(obj:0)
prodt_x_3_1_t_x_4_3_more_irrev2_3_1     3.37062661988029 	(obj:0)
prodt_x_4_3_t_x_7_1_more_irrev2_3_1     2.77886855853796 	(obj:0)
prodt_x_5_1_t_x_10_3_more_irrev2_3_1      1.8936780440532 	(obj:0)
prodt_x_7_3_t_x_10_1_more_irrev2_3_1     3.30971111187431 	(obj:0)
prodt_x_8_1_t_x_9_3_more_irrev2_3_1     1.61312894625053 	(obj:0)
prodt_x_10_3_t_x_12_1_more_irrev2_3_1     2.63537399943842 	(obj:0)
prodt_x_12_1_t_x_14_3_more_irrev2_3_1     2.20779085124406 	(obj:0)
prodt_x_13_1_t_x_14_3_more_irrev2_3_1      1.2451397684259 	(obj:0)
prodt_x_14_1_t_x_16_3_more_irrev2_3_1     2.22609758591437 	(obj:0)
prodt_x_15_3_t_x_16_1_more_irrev2_3_1    0.219345817017218 	(obj:0)
prodt_x_17_3_t_x_18_1_more_irrev2_3_1                    1 	(obj:0)
prodt_x_18_1_t_x_19_3_more_irrev2_3_1                    1 	(obj:0)
prodt_x_1_2_t_x_2_3_more_irrev1_3_2     2.92150454443217 	(obj:0)
prodt_x_2_3_t_x_3_2_more_irrev1_3_2     2.20027426718269 	(obj:0)
prodt_x_4_3_t_x_7_2_more_irrev1_3_2     3.90418564904801 	(obj:0)
prodt_x_6_2_t_x_7_3_more_irrev1_3_2     1.22430768973297 	(obj:0)
prodt_x_7_3_t_x_10_2_more_irrev1_3_2     2.28949867057281 	(obj:0)
prodt_x_9_2_t_x_11_3_more_irrev1_3_2     2.53219707759793 	(obj:0)
prodt_x_10_3_t_x_12_2_more_irrev1_3_2      2.1148207324074 	(obj:0)
prodt_x_11_2_t_x_13_3_more_irrev1_3_2      1.3851720061981 	(obj:0)
prodt_x_15_3_t_x_16_2_more_irrev1_3_2     1.56046511676151 	(obj:0)
prodt_x_16_2_t_x_20_3_more_irrev1_3_2     1.57807064711893 	(obj:0)
prodt_x_17_3_t_x_18_2_more_irrev1_3_2    0.739570477163384 	(obj:0)
prodt_x_1_2_t_x_2_3_more_irrev2_3_2    -2.92150454443217 	(obj:0)
prodt_x_2_3_t_x_3_2_more_irrev2_3_2    -2.20027426718269 	(obj:0)
prodt_x_4_3_t_x_7_2_more_irrev2_3_2    -3.90418564904801 	(obj:0)
prodt_x_6_2_t_x_7_3_more_irrev2_3_2    -1.22430768973297 	(obj:0)
prodt_x_7_3_t_x_10_2_more_irrev2_3_2    -2.28949867057281 	(obj:0)
prodt_x_9_2_t_x_11_3_more_irrev2_3_2    -2.53219707759793 	(obj:0)
prodt_x_10_3_t_x_12_2_more_irrev2_3_2     -2.1148207324074 	(obj:0)
prodt_x_11_2_t_x_13_3_more_irrev2_3_2     -1.3851720061981 	(obj:0)
prodt_x_15_3_t_x_16_2_more_irrev2_3_2    -1.56046511676151 	(obj:0)
prodt_x_16_2_t_x_20_3_more_irrev2_3_2    -1.57807064711893 	(obj:0)
prodt_x_17_3_t_x_18_2_more_irrev2_3_2   -0.739570477163384 	(obj:0)
SCIP Status        : problem is solved [optimal solution found]
Total Time         :    1152.90
  solving          :    1152.89
  presolving       :       0.15 (included in solving)
  reading          :       0.01
  copying          :       1.26 (127 #copies) (minimal 0.00, maximal 0.02, average 0.01)
Original Problem   :
  Problem name     : ../instances/Pot3NonCycle/Pot3NonCycle_T_20B_1t.txt.spa
  Variables        : 101 (100 binary, 0 integer, 0 implicit integer, 1 continuous)
  Constraints      : 193 initial, 193 maximal
  Objective sense  : maximize
Presolved Problem  :
  Problem name     : t_../instances/Pot3NonCycle/Pot3NonCycle_T_20B_1t.txt.spa
  Variables        : 590 (92 binary, 0 integer, 16 implicit integer, 482 continuous)
  Constraints      : 2039 initial, 4346 maximal
Presolvers         :   ExecTime  SetupTime  Calls  FixedVars   AggrVars   ChgTypes  ChgBounds   AddHoles    DelCons    AddCons   ChgSides   ChgCoefs
  boundshift       :       0.00       0.00      0          0          0          0          0          0          0          0          0          0
  components       :       0.01       0.00      1          0          0          0          0          0          0          0          0          0
  convertinttobin  :       0.00       0.00      0          0          0          0          0          0          0          0          0          0
  domcol           :       0.00       0.00      1          0          0          0          0          0          0          0          0          0
  dualagg          :       0.00       0.00      0          0          0          0          0          0          0          0          0          0
  dualinfer        :       0.00       0.00      0          0          0          0          0          0          0          0          0          0
  gateextraction   :       0.00       0.00      3          0          0          0          0          0        108         34          0          0
  implfree         :       0.00       0.00      0          0          0          0          0          0          0          0          0          0
  implics          :       0.00       0.00      4          0          0          0          0          0          0          0          0          0
  inttobinary      :       0.00       0.00      0          0          0          0          0          0          0          0          0          0
  redvub           :       0.00       0.00      0          0          0          0          0          0          0          0          0          0
  stuffing         :       0.00       0.00      1          0          0          0          0          0          0          0          0          0
  trivial          :       0.00       0.00      7          0          0          0          0          0          0          0          0          0
  tworowbnd        :       0.00       0.00      0          0          0          0          0          0          0          0          0          0
  dualfix          :       0.00       0.00      7          4          0          0          0          0          0          0          0          0
  genvbounds       :       0.00       0.00      0          0          0          0          0          0          0          0          0          0
  probing          :       0.09       0.00      1          0          0          0          4          0          0          0          0          0
  pseudoobj        :       0.00       0.00      0          0          0          0          0          0          0          0          0          0
  varbound         :       0.00       0.00      9          0          0          0          0          0         28         28          0          0
  setppc           :       0.00       0.00     12          0          0          0          0          0          0          0          0          0
  and              :       0.00       0.00      4          0         12          0          0          0         12          0          0          0
  linear           :       0.02       0.00      9          3          1          0          4          0          7          0         12         12
  logicor          :       0.02       0.00      7          0          0          0          0          0          0          0          0          0
  bounddisjunction :       0.00       0.00      0          0          0          0          0          0          0          0          0          0
  quadratic        :       0.01       0.00      2          0          0          0          0          0          0       1939          0          0
  root node        :          -          -      -          4          -          -         24          -          -          -          -          -
Constraints        :     Number  MaxNumber  #Separate #Propagate    #EnfoLP    #EnfoPS     #Check   #ResProp    Cutoffs    DomReds       Cuts    Applied      Conss   Children
  integral         :          0          0          0          0     515171          0      58816          0          0      37949          0          0          7     968900
  varbound         :        893        893         17    2731835      26774          0      58147     298752       6374   14947663         85         85          0          0
  setppc           :        110+       114         17    2723565      26884          0       4593     528784       5572     935058          2          0          0          0
  and              :         22         22      97320     488247       7617          0       3629      24000          5      65506       3286       3273          0          0
  linear           :        979        979         17    2720269      24529          0       3236     275126      11705   23807562     881563     881329          0          0
  logicor          :         35+      1976         10     589519          0          0          0      58730       1511      30697          0          0          0          0
  bounddisjunction :          0+       651          0     792371          0          0          0      15489        201     249848          0          0          0          0
  countsols        :          0          0          0          0         21          0         12          0          0          0          0          0          0          0
Constraint Timings :  TotalTime  SetupTime   Separate  Propagate     EnfoLP     EnfoPS      Check    ResProp    SB-Prop
  integral         :      16.57       0.00       0.00       0.00      16.55       0.00       0.02       0.00       0.00
  varbound         :      15.52       0.00       0.00      14.87       0.18       0.00       0.33       0.05       0.09
  setppc           :       9.84       0.00       0.00       9.53       0.00       0.00       0.00       0.13       0.18
  and              :       0.33       0.00       0.00       0.29       0.01       0.00       0.00       0.02       0.01
  linear           :      50.18       0.00       0.00      48.57       0.80       0.00       0.05       0.15       0.61
  logicor          :       1.78       0.00       0.00       1.74       0.00       0.00       0.00       0.02       0.02
  bounddisjunction :       2.59       0.00       0.00       2.56       0.00       0.00       0.00       0.00       0.03
  countsols        :       0.00       0.00       0.00       0.00       0.00       0.00       0.00       0.00       0.00
Propagators        : #Propagate   #ResProp    Cutoffs    DomReds
  dualfix          :          2          0          0          0
  genvbounds       :          0          0          0          0
  obbt             :          0          0          0          0
  probing          :          0          0          0          0
  pseudoobj        :    2964118          0       1077         18
  redcost          :    1057399          0          0      64751
  rootredcost      :         29          0          0          2
  vbounds          :    3227992        161         13      25815
Propagator Timings :  TotalTime  SetupTime   Presolve  Propagate    ResProp    SB-Prop
  dualfix          :       0.00       0.00       0.00       0.00       0.00       0.00
  genvbounds       :       0.49       0.00       0.00       0.48       0.00       0.01
  obbt             :       0.00       0.00       0.00       0.00       0.00       0.00
  probing          :       0.09       0.00       0.09       0.00       0.00       0.00
  pseudoobj        :       1.42       0.00       0.00       1.42       0.00       0.00
  redcost          :       5.16       0.00       0.00       5.16       0.00       0.00
  rootredcost      :       0.75       0.00       0.00       0.73       0.00       0.02
  vbounds          :       0.85       0.00       0.00       0.84       0.00       0.01
Conflict Analysis  :       Time      Calls    Success    DomReds  Conflicts   Literals    Reconvs ReconvLits   LP Iters
  propagation      :       1.11      14823      13450          -     183192       44.0        798       51.0          -
  infeasible LP    :       0.85       5790       5265          -      72504       35.9          8        5.6          0
  bound exceed. LP :       0.00          0          0          -          0        0.0          0        0.0          0
  strong branching :       0.00          0          0          -          0        0.0          0        0.0          0
  pseudo solution  :       0.00          0          0          -          0        0.0          0        0.0          -
  applied globally :       0.23          -          -          0      27031       20.8          -          -          -
  applied locally  :          -          -          -          0        536       44.2          -          -          -
Separators         :   ExecTime  SetupTime      Calls    Cutoffs    DomReds       Cuts    Applied      Conss
  cut pool         :       0.00                    16          -          -        341          -          -    (maximal pool size: 410)
  cgmip            :       0.00       0.00          0          0          0          0          0          0
  clique           :       0.01       0.00         17          0          0         52         28          0
  closecuts        :       0.00       0.00          0          0          0          0          0          0
  cmir             :       0.03       0.00         10          0          0        100         67          0
  disjunctive      :       0.00       0.00          0          0          0          0          0          0
  eccuts           :       0.00       0.00          0          0          0          0          0          0
  flowcover        :       0.28       0.00         15          0          0        276         18          0
  gomory           :       0.08       0.00         10          0          0         10          8          0
  impliedbounds    :       0.00       0.00         17          0          0        400         97          0
  intobj           :       0.00       0.00          0          0          0          0          0          0
  mcf              :       0.00       0.00          1          0          0          0          0          0
  oddcycle         :       0.00       0.00          0          0          0          0          0          0
  rapidlearning    :       0.00       0.00          0          0          0          0          0          0
  strongcg         :       0.13       0.00         17          0          0          0          0          0
  zerohalf         :       0.00       0.00          0          0          0          0          0          0
Pricers            :   ExecTime  SetupTime      Calls       Vars
  problem variables:       0.00          -          0          0
Branching Rules    :   ExecTime  SetupTime   BranchLP  BranchExt   BranchPS    Cutoffs    DomReds       Cuts      Conss   Children
  allfullstrong    :       0.00       0.00          0          0          0          0          0          0          0          0
  cloud            :       0.00       0.00          0          0          0          0          0          0          0          0
  distribution     :       0.00       0.00          0          0          0          0          0          0          0          0
  fullstrong       :       0.00       0.00          0          0          0          0          0          0          0          0
  inference        :       0.00       0.00          0          0          0          0          0          0          0          0
  leastinf         :       0.00       0.00          0          0          0          0          0          0          0          0
  mostinf          :       0.00       0.00          0          0          0          0          0          0          0          0
  multaggr         :       0.00       0.00          0          0          0          0          0          0          0          0
  nodereopt        :       0.00       0.00          0          0          0          0          0          0          0          0
  pscost           :       0.00       0.00          0          0          0          0          0          0          0          0
  random           :       0.00       0.00          0          0          0          0          0          0          0          0
  relpscost        :      16.33       0.00     488173          0          0          0      37949          0       -302     968900
Primal Heuristics  :   ExecTime  SetupTime      Calls      Found       Best
  LP solutions     :       0.09          -          -         21          -
  pseudo solutions :       0.00          -          -          0          -
  strong branching :       0.01          -          -          1          -
  SpaGreedy        :       0.00       0.00          0          0          0
  actconsdiving    :       0.00       0.00          0          0          0
  bound            :       0.00       0.00          0          0          0
  clique           :       0.00       0.00          0          0          0
  coefdiving       :       7.03       0.00       2653          0          0
  crossover        :       0.66       0.00          5          0          0
  dins             :       0.00       0.00          0          0          0
  distributiondivin:      15.05       0.00       2653          1          1
  dualval          :       0.00       0.00          0          0          0
  feaspump         :       0.06       0.00          5          0          0
  fixandinfer      :       0.00       0.00          0          0          0
  fracdiving       :       7.37       0.00       2653          0          0
  guideddiving     :       5.13       0.00       2652          0          0
  indicator        :       0.06       0.00          0          0          0
  intdiving        :       0.00       0.00          0          0          0
  intshifting      :       0.17       0.00         89          0          0
  linesearchdiving :       5.26       0.00       2652          1          1
  localbranching   :       0.00       0.00          0          0          0
  mutation         :       0.00       0.00          0          0          0
  nlpdiving        :       0.00       0.00          0          0          0
  objpscostdiving  :       9.03       0.00        896          1          0
  octane           :       0.00       0.00          0          0          0
  ofins            :       0.00       0.00          0          0          0
  oneopt           :       0.17       0.00         29          0          0
  proximity        :       0.00       0.00          0          0          0
  pscostdiving     :       6.92       0.00       2653          0          0
  randrounding     :       0.59       0.00      54763          0          0
  rens             :       0.00       0.00          0          0          0
  reoptsols        :       0.00       0.00          0          0          0
  rins             :       5.32       0.00        113          4          4
  rootsoldiving    :      10.05       0.00        898          2          0
  rounding         :       0.43       0.00       9839          0          0
  shiftandpropagate:       0.02       0.00          1          1          1
  shifting         :       1.10       0.00       3262          0          0
  simplerounding   :       0.06       0.00          0          0          0
  subnlp           :       0.16       0.00          0          0          0
  trivial          :       0.00       0.00          2          0          0
  trivialnegation  :       0.00       0.00          0          0          0
  trysol           :       0.20       0.00          0          0          0
  twoopt           :       0.00       0.00          0          0          0
  undercover       :       0.00       0.00          1          0          0
  vbounds          :       0.00       0.00          0          0          0
  veclendiving     :       6.55       0.00       2653          0          0
  zeroobj          :       0.00       0.00          0          0          0
  zirounding       :       0.13       0.00       1000          0          0
  other solutions  :          -          -          -          0          -
Diving Statistics  :      Calls      Nodes   LP Iters Backtracks   MinDepth   MaxDepth   AvgDepth  NLeafSols  MinSolDpt  MaxSolDpt  AvgSolDpt
  actconsdiving    :          0          -          -          -          -          -          -          -          -          -          -
  coefdiving       :       2653      14043     117131       2799         10         55       24.9          -          -          -          -
  distributiondivin:       2653      13761     155488       2678         13         53       24.3          -          -          -          -
  fracdiving       :       2653      14075     152452       2871         14         56       24.6          -          -          -          -
  guideddiving     :       2652      11842      85040       2753         10         60       24.2          -          -          -          -
  linesearchdiving :       2652      10438      86953       3066         10         38       23.5          -          -          -          -
  pscostdiving     :       2653      14742     135627       2640         12         61       25.0          -          -          -          -
  veclendiving     :       2653      13001     114253       3137         12         37       24.0          -          -          -          -
LP                 :       Time      Calls Iterations  Iter/call   Iter/sec  Time-0-It Calls-0-It
  primal LP        :       0.05          7       1218     304.50   24360.00       0.00          3
  dual LP          :     716.41    1109722   21075537      21.21   29418.26      14.67     116069
  lex dual LP      :       0.00          0          0       0.00          -
  barrier LP       :       0.00          0          0       0.00          -       0.00          0
  diving/probing LP:      45.72      44326    1285534      29.00   28117.54
  strong branching :       9.10       6249     211486      33.84   23240.22
    (at root node) :          -         45       5114     113.64          -
  conflict analysis:       0.00          0          0       0.00          -
B&B Tree           :
  number of runs   :          1
  nodes            :     940254 (484450 internal, 455804 leaves)
  nodes (total)    :     940254 (484450 internal, 455804 leaves)
  nodes left       :          0
  max depth        :         37
  max depth (total):         37
  backtracks       :     227028 (24.1%)
  delayed cutoffs  :       1420
  repropagations   :       8474 (160031 domain reductions, 1284 cutoffs)
  avg switch length:       5.39
  switching time   :     114.26
Root Node          :
  First LP value   : +3.00000000000000e+00
  First LP Iters   :        418 (41800.00 Iter/sec)
  First LP Time    :       0.01
  Final Dual Bound : +8.56707575388657e-01
  Final Root Iters :       1677
Solution           :
  Solutions found  :         32 (29 improvements)
  First Solution   : +0.00000000000000e+00   (in run 1, after 1 nodes, 0.16 seconds, depth 19, found by <shiftandpropagate>)
  Gap First Sol.   :   infinite
  Gap Last Sol.    :      36.05 %
  Primal Bound     : +2.88402608000500e-04   (in run 1, after 134508 nodes, 168.28 seconds, depth 29, found by <relaxation>)
  Dual Bound       : +2.88402608000500e-04
  Gap              :       0.00 %
  Avg. Gap         :      27.60 % (31823.52 primal-dual integral)
